instances/knapsack/discrete_knapsack_uncertainty/knapsack_110_4.lp
\ Model knapsack_110_4
\ LP format - for model browsing. Use MPS format to capture full model detail.
\ Signature: 0x1c7a262dccd0e095
Minimize
  - 24 x[0] - 21 x[1] - 18 x[2] - 62 x[3] - 64 x[4] - 79 x[5] - 28 x[6]
   - 14 x[7] - 61 x[8] - 5 x[9] - 25 x[10] - 25 x[11] - 57 x[12] - 60 x[13]
   - 21 x[14] - 54 x[15] - 36 x[16] - 92 x[17] - 85 x[18] - 76 x[19]
   - 100 x[20] - 21 x[21] - 10 x[22] - 38 x[23] - 55 x[24] - 33 x[25]
   - 54 x[26] - 42 x[27] - 40 x[28] - 7 x[29] - 91 x[30] - 42 x[31]
   - 94 x[32] - 9 x[33] - 2 x[34] - 55 x[35] - 39 x[36] - 53 x[37]
   - 97 x[38] - 58 x[39] - 98 x[40] - 72 x[41] - 36 x[42] - 17 x[43]
   - 69 x[44] - 65 x[45] - 91 x[46] - 39 x[47] - 99 x[48] - 8 x[49]
   - 5 x[50] - 13 x[51] - 29 x[52] - 31 x[53] - 6 x[54] - 72 x[55]
   - 45 x[56] - 74 x[57] - 94 x[58] - 97 x[59] - 50 x[60] - 48 x[61]
   - 24 x[62] - 4 x[63] - 9 x[64] - 23 x[65] - 79 x[66] - 56 x[67]
   - 19 x[68] - 12 x[69] - 35 x[70] - 53 x[71] - 99 x[72] - 44 x[73]
   - 69 x[74] - 20 x[75] - 60 x[76] - 11 x[77] - 86 x[78] - 54 x[79]
   - 13 x[80] - 8 x[81] - 100 x[82] - 36 x[83] - 71 x[84] - 27 x[85]
   - 44 x[86] - 77 x[87] - 50 x[88] - 73 x[89] - 32 x[90] - 80 x[91]
   - 24 x[92] - 91 x[93] - 34 x[94] - 9 x[95] - 15 x[96] - 26 x[97]
   - 99 x[98] - 79 x[99] - 7 x[100] - 20 x[101] - 45 x[102] - 4 x[103]
   - 9 x[104] - x[105] - 20 x[106] - 67 x[107] - 76 x[108] - 51 x[109]
Subject To
 primal_upper: 86 x[0] + 62 x[1] + 4 x[2] + x[3] + 2 x[4] + 80 x[5]
   + 35 x[6] + 10 x[7] + 43 x[8] + 28 x[9] + 86 x[10] + 13 x[11] + 14 x[12]
   + 62 x[13] + 51 x[14] + 59 x[15] + 27 x[16] + 10 x[17] + 39 x[18]
   + 40 x[19] + 23 x[20] + 6 x[21] + 58 x[22] + 49 x[23] + 43 x[24]
   + 54 x[25] + 12 x[26] + 46 x[27] + 68 x[28] + 37 x[29] + 80 x[30]
   + 10 x[31] + 18 x[32] + 63 x[33] + 58 x[34] + 23 x[35] + 78 x[36]
   + 99 x[37] + 46 x[38] + 81 x[39] + 9 x[40] + 64 x[41] + 32 x[42]
   + 92 x[43] + 69 x[44] + 97 x[45] + 96 x[46] + 16 x[47] + 73 x[48]
   + 90 x[49] + 97 x[50] + 74 x[51] + 91 x[52] + 94 x[53] + 11 x[54]
   + 14 x[55] + 51 x[56] + 93 x[57] + 98 x[58] + 76 x[59] + 87 x[60]
   + 77 x[61] + 94 x[62] + 77 x[63] + 34 x[64] + 50 x[65] + 39 x[66]
   + 89 x[67] + 26 x[68] + 84 x[69] + 88 x[70] + 24 x[71] + 76 x[72]
   + 9 x[73] + 10 x[74] + 75 x[75] + 33 x[76] + 9 x[77] + 15 x[78]
   + 85 x[79] + 80 x[80] + 96 x[81] + 49 x[82] + 48 x[83] + 80 x[84]
   + 8 x[85] + 54 x[86] + 98 x[87] + 4 x[88] + 49 x[89] + 15 x[90]
   + 27 x[91] + 35 x[92] + 66 x[93] + 30 x[94] + 67 x[95] + 15 x[96]
   + 67 x[97] + 2 x[98] + 38 x[99] + 59 x[100] + 82 x[101] + 76 x[102]
   + 26 x[103] + 23 x[104] + 52 x[105] + 69 x[106] + 41 x[107] + 57 x[108]
   + 99 x[109] + 8.6 r[0] + 6.2 r[1] + 0.4 r[2] + 0.1 r[3] + 0.2 r[4]
   + 8 r[5] + 3.5 r[6] + r[7] + 4.3 r[8] + 2.8 r[9] + 8.6 r[10] + 1.3 r[11]
   + 1.4 r[12] + 6.2 r[13] + 5.1 r[14] + 5.9 r[15] + 2.7 r[16] + r[17]
   + 3.9 r[18] + 4 r[19] + 2.3 r[20] + 0.6 r[21] + 5.8 r[22] + 4.9 r[23]
   + 4.3 r[24] + 5.4 r[25] + 1.2 r[26] + 4.6 r[27] + 6.8 r[28] + 3.7 r[29]
   + 8 r[30] + r[31] + 1.8 r[32] + 6.3 r[33] + 5.8 r[34] + 2.3 r[35]
   + 7.8 r[36] + 9.9 r[37] + 4.6 r[38] + 8.1 r[39] + 0.9 r[40] + 6.4 r[41]
   + 3.2 r[42] + 9.2 r[43] + 6.9 r[44] + 9.7 r[45] + 9.6 r[46] + 1.6 r[47]
   + 7.3 r[48] + 9 r[49] + 9.7 r[50] + 7.4 r[51] + 9.1 r[52] + 9.4 r[53]
   + 1.1 r[54] + 1.4 r[55] + 5.1 r[56] + 9.3 r[57] + 9.8 r[58] + 7.6 r[59]
   + 8.7 r[60] + 7.7 r[61] + 9.4 r[62] + 7.7 r[63] + 3.4 r[64] + 5 r[65]
   + 3.9 r[66] + 8.9 r[67] + 2.6 r[68] + 8.4 r[69] + 8.8 r[70] + 2.4 r[71]
   + 7.6 r[72] + 0.9 r[73] + r[74] + 7.5 r[75] + 3.3 r[76] + 0.9 r[77]
   + 1.5 r[78] + 8.5 r[79] + 8 r[80] + 9.6 r[81] + 4.9 r[82] + 4.8 r[83]
   + 8 r[84] + 0.8 r[85] + 5.4 r[86] + 9.8 r[87] + 0.4 r[88] + 4.9 r[89]
   + 1.5 r[90] + 2.7 r[91] + 3.5 r[92] + 6.6 r[93] + 3 r[94] + 6.7 r[95]
   + 1.5 r[96] + 6.7 r[97] + 0.2 r[98] + 3.8 r[99] + 5.9 r[100]
   + 8.2 r[101] + 7.6 r[102] + 2.6 r[103] + 2.3 r[104] + 5.2 r[105]
   + 6.9 r[106] + 4.1 r[107] + 5.7 r[108] + 9.9 r[109] <= 536
 primal_lower: 3.46354688147008 x[0] + 1.913664141126635 x[1]
   + 0.5456074432516436 x[2] + 2.917016523152783 x[3]
   + 1.529116996815948 x[4] + 1.639211341411874 x[5]
   + 1.194572610190097 x[6] + 4.409575201986596 x[7]
   + 4.696272962297121 x[8] + 3.619436903929579 x[9]
   + 1.424505939409648 x[10] + 4.063999299149656 x[11]
   + 4.434230645033312 x[12] + 0.769204515577775 x[13]
   + 1.241384416336914 x[14] + 2.388155078147532 x[15]
   + 3.686293329640443 x[16] + 0.4524313482338741 x[17]
   + 4.522605193644358 x[18] + 3.916939750451283 x[19]
   + 2.159313190092919 x[20] + 3.242728013529179 x[21]
   + 2.581344610159952 x[22] + 1.519654464572517 x[23]
   + 3.35878491035737 x[24] + 1.111910782639512 x[25]
   + 0.0425415121001763 x[26] + 1.671621801589232 x[27]
   + 0.2804142116367182 x[28] + 1.440324625525384 x[29]
   + 0.6610095558080697 x[30] + 2.278511521302109 x[31]
   + 0.0505312705649759 x[32] + 0.0803141500067626 x[33]
   + 2.845198009142949 x[34] + 0.5605272303680128 x[35]
   + 0.3330384242447714 x[36] + 2.250174383940454 x[37]
   + 4.499786939796393 x[38] + 1.168504345866961 x[39]
   + 3.140944792179408 x[40] + 2.663022647374238 x[41]
   + 4.10887428752739 x[42] + 1.265919849673946 x[43]
   + 3.01867096486561 x[44] + 1.67403564334247 x[45]
   + 2.619302583786697 x[46] + 1.912723394332318 x[47]
   + 0.2224887940672743 x[48] + 1.733243322557665 x[49]
   + 1.253958642645374 x[50] + 0.153172758081651 x[51]
   + 2.26090397233778 x[52] + 0.1644978780423629 x[53]
   + 1.197663534802023 x[54] + 0.7835829880837449 x[55]
   + 2.881442426871007 x[56] + 3.058141240983941 x[57]
   + 0.5426850227859359 x[58] + 1.183332040573545 x[59]
   + 2.373414778256147 x[60] + 3.780502788388647 x[61]
   + 4.885542036444912 x[62] + 0.7783978808538619 x[63]
   + 0.6693411984413346 x[64] + 3.112910962936474 x[65]
   + 3.11142234069807 x[66] + 1.09396517281582 x[67]
   + 3.646350911146508 x[68] + 2.020840492815278 x[69]
   + 4.725925095112885 x[70] + 2.950268485240841 x[71]
   + 1.284537521028543 x[72] + 1.844968061516763 x[73]
   + 0.2660818891942722 x[74] + 1.910120129876878 x[75]
   + 3.717022954704633 x[76] + 0.0735819463549525 x[77]
   + 3.567639060680778 x[78] + 1.245064197504114 x[79]
   + 3.710927378603579 x[80] + 2.40158067265781 x[81]
   + 4.283171102971256 x[82] + 1.42286356424545 x[83]
   + 0.8205741651530229 x[84] + 0.280729255032836 x[85]
   + 4.775595361279848 x[86] + 3.572443491507604 x[87]
   + 4.674157279051321 x[88] + 1.987484963123672 x[89]
   + 2.560963343128646 x[90] + 1.246149755555423 x[91]
   + 2.781511210032566 x[92] + 1.768326410285075 x[93]
   + 2.839970575740232 x[94] + 2.16573695077499 x[95]
   + 0.4915206509229941 x[96] + 2.816591392215188 x[97]
   + 4.487516252601351 x[98] + 3.291975906313569 x[99]
   + 3.636777176242162 x[100] + 0.3538054469379734 x[101]
   + 1.544790859937431 x[102] + 2.271397409966515 x[103]
   + 1.466349823045577 x[104] + 2.275558992180983 x[105]
   + 4.725571684440468 x[106] + 1.837552309060792 x[107]
   + 0.9677120893579244 x[108] + 1.157043887583929 x[109] + 48 u[0]
   + 88 u[1] + 10 u[2] + 51 u[3] + 48 u[4] + 98 u[5] + 93 u[6] + 100 u[7]
   + 53 u[8] + 46 u[9] + 36 u[10] + 39 u[11] + 8 u[12] + 40 u[13] + u[14]
   + 57 u[15] + 77 u[16] + 68 u[17] + 21 u[18] + 50 u[19] + 49 u[20]
   + 44 u[21] + 80 u[22] + 59 u[23] + 73 u[24] + 52 u[25] + 66 u[26]
   + 40 u[27] + 54 u[28] + 23 u[29] + 86 u[30] + 36 u[31] + 4 u[32]
   + 77 u[33] + 12 u[34] + 61 u[35] + 56 u[36] + 93 u[37] + 24 u[38]
   + 27 u[39] + 67 u[40] + 18 u[41] + 86 u[42] + 2 u[43] + 15 u[44]
   + 51 u[45] + 18 u[46] + 2 u[47] + 71 u[48] + 84 u[49] + 39 u[50]
   + 72 u[51] + 93 u[52] + 28 u[53] + 29 u[54] + 96 u[55] + 13 u[56]
   + 95 u[57] + 28 u[58] + 30 u[59] + 73 u[60] + 95 u[61] + 28 u[62]
   + 27 u[63] + 24 u[64] + 96 u[65] + 97 u[66] + 31 u[67] + 4 u[68]
   + 46 u[69] + 26 u[70] + 98 u[71] + 38 u[72] + 59 u[73] + 64 u[74]
   + 29 u[75] + 23 u[76] + 71 u[77] + 33 u[78] + 63 u[79] + 14 u[80]
   + 58 u[81] + 99 u[82] + 82 u[83] + 42 u[84] + 86 u[85] + 92 u[86]
   + 48 u[87] + 6 u[88] + 63 u[89] + 53 u[90] + 41 u[91] + 97 u[92]
   + 44 u[93] + 48 u[94] + 97 u[95] + 65 u[96] + 45 u[97] + 60 u[98]
   + 100 u[99] + u[100] + 88 u[101] + 22 u[102] + 64 u[103] + 53 u[104]
   + 62 u[105] + 19 u[106] + 75 u[107] + 27 u[108] + u[109] <= 55210
 mccormick1[0]: - u[0] + r[0] <= 0
 mccormick1[1]: - u[1] + r[1] <= 0
 mccormick1[2]: - u[2] + r[2] <= 0
 mccormick1[3]: - u[3] + r[3] <= 0
 mccormick1[4]: - u[4] + r[4] <= 0
 mccormick1[5]: - u[5] + r[5] <= 0
 mccormick1[6]: - u[6] + r[6] <= 0
 mccormick1[7]: - u[7] + r[7] <= 0
 mccormick1[8]: - u[8] + r[8] <= 0
 mccormick1[9]: - u[9] + r[9] <= 0
 mccormick1[10]: - u[10] + r[10] <= 0
 mccormick1[11]: - u[11] + r[11] <= 0
 mccormick1[12]: - u[12] + r[12] <= 0
 mccormick1[13]: - u[13] + r[13] <= 0
 mccormick1[14]: - u[14] + r[14] <= 0
 mccormick1[15]: - u[15] + r[15] <= 0
 mccormick1[16]: - u[16] + r[16] <= 0
 mccormick1[17]: - u[17] + r[17] <= 0
 mccormick1[18]: - u[18] + r[18] <= 0
 mccormick1[19]: - u[19] + r[19] <= 0
 mccormick1[20]: - u[20] + r[20] <= 0
 mccormick1[21]: - u[21] + r[21] <= 0
 mccormick1[22]: - u[22] + r[22] <= 0
 mccormick1[23]: - u[23] + r[23] <= 0
 mccormick1[24]: - u[24] + r[24] <= 0
 mccormick1[25]: - u[25] + r[25] <= 0
 mccormick1[26]: - u[26] + r[26] <= 0
 mccormick1[27]: - u[27] + r[27] <= 0
 mccormick1[28]: - u[28] + r[28] <= 0
 mccormick1[29]: - u[29] + r[29] <= 0
 mccormick1[30]: - u[30] + r[30] <= 0
 mccormick1[31]: - u[31] + r[31] <= 0
 mccormick1[32]: - u[32] + r[32] <= 0
 mccormick1[33]: - u[33] + r[33] <= 0
 mccormick1[34]: - u[34] + r[34] <= 0
 mccormick1[35]: - u[35] + r[35] <= 0
 mccormick1[36]: - u[36] + r[36] <= 0
 mccormick1[37]: - u[37] + r[37] <= 0
 mccormick1[38]: - u[38] + r[38] <= 0
 mccormick1[39]: - u[39] + r[39] <= 0
 mccormick1[40]: - u[40] + r[40] <= 0
 mccormick1[41]: - u[41] + r[41] <= 0
 mccormick1[42]: - u[42] + r[42] <= 0
 mccormick1[43]: - u[43] + r[43] <= 0
 mccormick1[44]: - u[44] + r[44] <= 0
 mccormick1[45]: - u[45] + r[45] <= 0
 mccormick1[46]: - u[46] + r[46] <= 0
 mccormick1[47]: - u[47] + r[47] <= 0
 mccormick1[48]: - u[48] + r[48] <= 0
 mccormick1[49]: - u[49] + r[49] <= 0
 mccormick1[50]: - u[50] + r[50] <= 0
 mccormick1[51]: - u[51] + r[51] <= 0
 mccormick1[52]: - u[52] + r[52] <= 0
 mccormick1[53]: - u[53] + r[53] <= 0
 mccormick1[54]: - u[54] + r[54] <= 0
 mccormick1[55]: - u[55] + r[55] <= 0
 mccormick1[56]: - u[56] + r[56] <= 0
 mccormick1[57]: - u[57] + r[57] <= 0
 mccormick1[58]: - u[58] + r[58] <= 0
 mccormick1[59]: - u[59] + r[59] <= 0
 mccormick1[60]: - u[60] + r[60] <= 0
 mccormick1[61]: - u[61] + r[61] <= 0
 mccormick1[62]: - u[62] + r[62] <= 0
 mccormick1[63]: - u[63] + r[63] <= 0
 mccormick1[64]: - u[64] + r[64] <= 0
 mccormick1[65]: - u[65] + r[65] <= 0
 mccormick1[66]: - u[66] + r[66] <= 0
 mccormick1[67]: - u[67] + r[67] <= 0
 mccormick1[68]: - u[68] + r[68] <= 0
 mccormick1[69]: - u[69] + r[69] <= 0
 mccormick1[70]: - u[70] + r[70] <= 0
 mccormick1[71]: - u[71] + r[71] <= 0
 mccormick1[72]: - u[72] + r[72] <= 0
 mccormick1[73]: - u[73] + r[73] <= 0
 mccormick1[74]: - u[74] + r[74] <= 0
 mccormick1[75]: - u[75] + r[75] <= 0
 mccormick1[76]: - u[76] + r[76] <= 0
 mccormick1[77]: - u[77] + r[77] <= 0
 mccormick1[78]: - u[78] + r[78] <= 0
 mccormick1[79]: - u[79] + r[79] <= 0
 mccormick1[80]: - u[80] + r[80] <= 0
 mccormick1[81]: - u[81] + r[81] <= 0
 mccormick1[82]: - u[82] + r[82] <= 0
 mccormick1[83]: - u[83] + r[83] <= 0
 mccormick1[84]: - u[84] + r[84] <= 0
 mccormick1[85]: - u[85] + r[85] <= 0
 mccormick1[86]: - u[86] + r[86] <= 0
 mccormick1[87]: - u[87] + r[87] <= 0
 mccormick1[88]: - u[88] + r[88] <= 0
 mccormick1[89]: - u[89] + r[89] <= 0
 mccormick1[90]: - u[90] + r[90] <= 0
 mccormick1[91]: - u[91] + r[91] <= 0
 mccormick1[92]: - u[92] + r[92] <= 0
 mccormick1[93]: - u[93] + r[93] <= 0
 mccormick1[94]: - u[94] + r[94] <= 0
 mccormick1[95]: - u[95] + r[95] <= 0
 mccormick1[96]: - u[96] + r[96] <= 0
 mccormick1[97]: - u[97] + r[97] <= 0
 mccormick1[98]: - u[98] + r[98] <= 0
 mccormick1[99]: - u[99] + r[99] <= 0
 mccormick1[100]: - u[100] + r[100] <= 0
 mccormick1[101]: - u[101] + r[101] <= 0
 mccormick1[102]: - u[102] + r[102] <= 0
 mccormick1[103]: - u[103] + r[103] <= 0
 mccormick1[104]: - u[104] + r[104] <= 0
 mccormick1[105]: - u[105] + r[105] <= 0
 mccormick1[106]: - u[106] + r[106] <= 0
 mccormick1[107]: - u[107] + r[107] <= 0
 mccormick1[108]: - u[108] + r[108] <= 0
 mccormick1[109]: - u[109] + r[109] <= 0
 mccormick2[0]: - x[0] + r[0] <= 0
 mccormick2[1]: - x[1] + r[1] <= 0
 mccormick2[2]: - x[2] + r[2] <= 0
 mccormick2[3]: - x[3] + r[3] <= 0
 mccormick2[4]: - x[4] + r[4] <= 0
 mccormick2[5]: - x[5] + r[5] <= 0
 mccormick2[6]: - x[6] + r[6] <= 0
 mccormick2[7]: - x[7] + r[7] <= 0
 mccormick2[8]: - x[8] + r[8] <= 0
 mccormick2[9]: - x[9] + r[9] <= 0
 mccormick2[10]: - x[10] + r[10] <= 0
 mccormick2[11]: - x[11] + r[11] <= 0
 mccormick2[12]: - x[12] + r[12] <= 0
 mccormick2[13]: - x[13] + r[13] <= 0
 mccormick2[14]: - x[14] + r[14] <= 0
 mccormick2[15]: - x[15] + r[15] <= 0
 mccormick2[16]: - x[16] + r[16] <= 0
 mccormick2[17]: - x[17] + r[17] <= 0
 mccormick2[18]: - x[18] + r[18] <= 0
 mccormick2[19]: - x[19] + r[19] <= 0
 mccormick2[20]: - x[20] + r[20] <= 0
 mccormick2[21]: - x[21] + r[21] <= 0
 mccormick2[22]: - x[22] + r[22] <= 0
 mccormick2[23]: - x[23] + r[23] <= 0
 mccormick2[24]: - x[24] + r[24] <= 0
 mccormick2[25]: - x[25] + r[25] <= 0
 mccormick2[26]: - x[26] + r[26] <= 0
 mccormick2[27]: - x[27] + r[27] <= 0
 mccormick2[28]: - x[28] + r[28] <= 0
 mccormick2[29]: - x[29] + r[29] <= 0
 mccormick2[30]: - x[30] + r[30] <= 0
 mccormick2[31]: - x[31] + r[31] <= 0
 mccormick2[32]: - x[32] + r[32] <= 0
 mccormick2[33]: - x[33] + r[33] <= 0
 mccormick2[34]: - x[34] + r[34] <= 0
 mccormick2[35]: - x[35] + r[35] <= 0
 mccormick2[36]: - x[36] + r[36] <= 0
 mccormick2[37]: - x[37] + r[37] <= 0
 mccormick2[38]: - x[38] + r[38] <= 0
 mccormick2[39]: - x[39] + r[39] <= 0
 mccormick2[40]: - x[40] + r[40] <= 0
 mccormick2[41]: - x[41] + r[41] <= 0
 mccormick2[42]: - x[42] + r[42] <= 0
 mccormick2[43]: - x[43] + r[43] <= 0
 mccormick2[44]: - x[44] + r[44] <= 0
 mccormick2[45]: - x[45] + r[45] <= 0
 mccormick2[46]: - x[46] + r[46] <= 0
 mccormick2[47]: - x[47] + r[47] <= 0
 mccormick2[48]: - x[48] + r[48] <= 0
 mccormick2[49]: - x[49] + r[49] <= 0
 mccormick2[50]: - x[50] + r[50] <= 0
 mccormick2[51]: - x[51] + r[51] <= 0
 mccormick2[52]: - x[52] + r[52] <= 0
 mccormick2[53]: - x[53] + r[53] <= 0
 mccormick2[54]: - x[54] + r[54] <= 0
 mccormick2[55]: - x[55] + r[55] <= 0
 mccormick2[56]: - x[56] + r[56] <= 0
 mccormick2[57]: - x[57] + r[57] <= 0
 mccormick2[58]: - x[58] + r[58] <= 0
 mccormick2[59]: - x[59] + r[59] <= 0
 mccormick2[60]: - x[60] + r[60] <= 0
 mccormick2[61]: - x[61] + r[61] <= 0
 mccormick2[62]: - x[62] + r[62] <= 0
 mccormick2[63]: - x[63] + r[63] <= 0
 mccormick2[64]: - x[64] + r[64] <= 0
 mccormick2[65]: - x[65] + r[65] <= 0
 mccormick2[66]: - x[66] + r[66] <= 0
 mccormick2[67]: - x[67] + r[67] <= 0
 mccormick2[68]: - x[68] + r[68] <= 0
 mccormick2[69]: - x[69] + r[69] <= 0
 mccormick2[70]: - x[70] + r[70] <= 0
 mccormick2[71]: - x[71] + r[71] <= 0
 mccormick2[72]: - x[72] + r[72] <= 0
 mccormick2[73]: - x[73] + r[73] <= 0
 mccormick2[74]: - x[74] + r[74] <= 0
 mccormick2[75]: - x[75] + r[75] <= 0
 mccormick2[76]: - x[76] + r[76] <= 0
 mccormick2[77]: - x[77] + r[77] <= 0
 mccormick2[78]: - x[78] + r[78] <= 0
 mccormick2[79]: - x[79] + r[79] <= 0
 mccormick2[80]: - x[80] + r[80] <= 0
 mccormick2[81]: - x[81] + r[81] <= 0
 mccormick2[82]: - x[82] + r[82] <= 0
 mccormick2[83]: - x[83] + r[83] <= 0
 mccormick2[84]: - x[84] + r[84] <= 0
 mccormick2[85]: - x[85] + r[85] <= 0
 mccormick2[86]: - x[86] + r[86] <= 0
 mccormick2[87]: - x[87] + r[87] <= 0
 mccormick2[88]: - x[88] + r[88] <= 0
 mccormick2[89]: - x[89] + r[89] <= 0
 mccormick2[90]: - x[90] + r[90] <= 0
 mccormick2[91]: - x[91] + r[91] <= 0
 mccormick2[92]: - x[92] + r[92] <= 0
 mccormick2[93]: - x[93] + r[93] <= 0
 mccormick2[94]: - x[94] + r[94] <= 0
 mccormick2[95]: - x[95] + r[95] <= 0
 mccormick2[96]: - x[96] + r[96] <= 0
 mccormick2[97]: - x[97] + r[97] <= 0
 mccormick2[98]: - x[98] + r[98] <= 0
 mccormick2[99]: - x[99] + r[99] <= 0
 mccormick2[100]: - x[100] + r[100] <= 0
 mccormick2[101]: - x[101] + r[101] <= 0
 mccormick2[102]: - x[102] + r[102] <= 0
 mccormick2[103]: - x[103] + r[103] <= 0
 mccormick2[104]: - x[104] + r[104] <= 0
 mccormick2[105]: - x[105] + r[105] <= 0
 mccormick2[106]: - x[106] + r[106] <= 0
 mccormick2[107]: - x[107] + r[107] <= 0
 mccormick2[108]: - x[108] + r[108] <= 0
 mccormick2[109]: - x[109] + r[109] <= 0
 mccormick3[0]: x[0] + u[0] - r[0] <= 1
 mccormick3[1]: x[1] + u[1] - r[1] <= 1
 mccormick3[2]: x[2] + u[2] - r[2] <= 1
 mccormick3[3]: x[3] + u[3] - r[3] <= 1
 mccormick3[4]: x[4] + u[4] - r[4] <= 1
 mccormick3[5]: x[5] + u[5] - r[5] <= 1
 mccormick3[6]: x[6] + u[6] - r[6] <= 1
 mccormick3[7]: x[7] + u[7] - r[7] <= 1
 mccormick3[8]: x[8] + u[8] - r[8] <= 1
 mccormick3[9]: x[9] + u[9] - r[9] <= 1
 mccormick3[10]: x[10] + u[10] - r[10] <= 1
 mccormick3[11]: x[11] + u[11] - r[11] <= 1
 mccormick3[12]: x[12] + u[12] - r[12] <= 1
 mccormick3[13]: x[13] + u[13] - r[13] <= 1
 mccormick3[14]: x[14] + u[14] - r[14] <= 1
 mccormick3[15]: x[15] + u[15] - r[15] <= 1
 mccormick3[16]: x[16] + u[16] - r[16] <= 1
 mccormick3[17]: x[17] + u[17] - r[17] <= 1
 mccormick3[18]: x[18] + u[18] - r[18] <= 1
 mccormick3[19]: x[19] + u[19] - r[19] <= 1
 mccormick3[20]: x[20] + u[20] - r[20] <= 1
 mccormick3[21]: x[21] + u[21] - r[21] <= 1
 mccormick3[22]: x[22] + u[22] - r[22] <= 1
 mccormick3[23]: x[23] + u[23] - r[23] <= 1
 mccormick3[24]: x[24] + u[24] - r[24] <= 1
 mccormick3[25]: x[25] + u[25] - r[25] <= 1
 mccormick3[26]: x[26] + u[26] - r[26] <= 1
 mccormick3[27]: x[27] + u[27] - r[27] <= 1
 mccormick3[28]: x[28] + u[28] - r[28] <= 1
 mccormick3[29]: x[29] + u[29] - r[29] <= 1
 mccormick3[30]: x[30] + u[30] - r[30] <= 1
 mccormick3[31]: x[31] + u[31] - r[31] <= 1
 mccormick3[32]: x[32] + u[32] - r[32] <= 1
 mccormick3[33]: x[33] + u[33] - r[33] <= 1
 mccormick3[34]: x[34] + u[34] - r[34] <= 1
 mccormick3[35]: x[35] + u[35] - r[35] <= 1
 mccormick3[36]: x[36] + u[36] - r[36] <= 1
 mccormick3[37]: x[37] + u[37] - r[37] <= 1
 mccormick3[38]: x[38] + u[38] - r[38] <= 1
 mccormick3[39]: x[39] + u[39] - r[39] <= 1
 mccormick3[40]: x[40] + u[40] - r[40] <= 1
 mccormick3[41]: x[41] + u[41] - r[41] <= 1
 mccormick3[42]: x[42] + u[42] - r[42] <= 1
 mccormick3[43]: x[43] + u[43] - r[43] <= 1
 mccormick3[44]: x[44] + u[44] - r[44] <= 1
 mccormick3[45]: x[45] + u[45] - r[45] <= 1
 mccormick3[46]: x[46] + u[46] - r[46] <= 1
 mccormick3[47]: x[47] + u[47] - r[47] <= 1
 mccormick3[48]: x[48] + u[48] - r[48] <= 1
 mccormick3[49]: x[49] + u[49] - r[49] <= 1
 mccormick3[50]: x[50] + u[50] - r[50] <= 1
 mccormick3[51]: x[51] + u[51] - r[51] <= 1
 mccormick3[52]: x[52] + u[52] - r[52] <= 1
 mccormick3[53]: x[53] + u[53] - r[53] <= 1
 mccormick3[54]: x[54] + u[54] - r[54] <= 1
 mccormick3[55]: x[55] + u[55] - r[55] <= 1
 mccormick3[56]: x[56] + u[56] - r[56] <= 1
 mccormick3[57]: x[57] + u[57] - r[57] <= 1
 mccormick3[58]: x[58] + u[58] - r[58] <= 1
 mccormick3[59]: x[59] + u[59] - r[59] <= 1
 mccormick3[60]: x[60] + u[60] - r[60] <= 1
 mccormick3[61]: x[61] + u[61] - r[61] <= 1
 mccormick3[62]: x[62] + u[62] - r[62] <= 1
 mccormick3[63]: x[63] + u[63] - r[63] <= 1
 mccormick3[64]: x[64] + u[64] - r[64] <= 1
 mccormick3[65]: x[65] + u[65] - r[65] <= 1
 mccormick3[66]: x[66] + u[66] - r[66] <= 1
 mccormick3[67]: x[67] + u[67] - r[67] <= 1
 mccormick3[68]: x[68] + u[68] - r[68] <= 1
 mccormick3[69]: x[69] + u[69] - r[69] <= 1
 mccormick3[70]: x[70] + u[70] - r[70] <= 1
 mccormick3[71]: x[71] + u[71] - r[71] <= 1
 mccormick3[72]: x[72] + u[72] - r[72] <= 1
 mccormick3[73]: x[73] + u[73] - r[73] <= 1
 mccormick3[74]: x[74] + u[74] - r[74] <= 1
 mccormick3[75]: x[75] + u[75] - r[75] <= 1
 mccormick3[76]: x[76] + u[76] - r[76] <= 1
 mccormick3[77]: x[77] + u[77] - r[77] <= 1
 mccormick3[78]: x[78] + u[78] - r[78] <= 1
 mccormick3[79]: x[79] + u[79] - r[79] <= 1
 mccormick3[80]: x[80] + u[80] - r[80] <= 1
 mccormick3[81]: x[81] + u[81] - r[81] <= 1
 mccormick3[82]: x[82] + u[82] - r[82] <= 1
 mccormick3[83]: x[83] + u[83] - r[83] <= 1
 mccormick3[84]: x[84] + u[84] - r[84] <= 1
 mccormick3[85]: x[85] + u[85] - r[85] <= 1
 mccormick3[86]: x[86] + u[86] - r[86] <= 1
 mccormick3[87]: x[87] + u[87] - r[87] <= 1
 mccormick3[88]: x[88] + u[88] - r[88] <= 1
 mccormick3[89]: x[89] + u[89] - r[89] <= 1
 mccormick3[90]: x[90] + u[90] - r[90] <= 1
 mccormick3[91]: x[91] + u[91] - r[91] <= 1
 mccormick3[92]: x[92] + u[92] - r[92] <= 1
 mccormick3[93]: x[93] + u[93] - r[93] <= 1
 mccormick3[94]: x[94] + u[94] - r[94] <= 1
 mccormick3[95]: x[95] + u[95] - r[95] <= 1
 mccormick3[96]: x[96] + u[96] - r[96] <= 1
 mccormick3[97]: x[97] + u[97] - r[97] <= 1
 mccormick3[98]: x[98] + u[98] - r[98] <= 1
 mccormick3[99]: x[99] + u[99] - r[99] <= 1
 mccormick3[100]: x[100] + u[100] - r[100] <= 1
 mccormick3[101]: x[101] + u[101] - r[101] <= 1
 mccormick3[102]: x[102] + u[102] - r[102] <= 1
 mccormick3[103]: x[103] + u[103] - r[103] <= 1
 mccormick3[104]: x[104] + u[104] - r[104] <= 1
 mccormick3[105]: x[105] + u[105] - r[105] <= 1
 mccormick3[106]: x[106] + u[106] - r[106] <= 1
 mccormick3[107]: x[107] + u[107] - r[107] <= 1
 mccormick3[108]: x[108] + u[108] - r[108] <= 1
 mccormick3[109]: x[109] + u[109] - r[109] <= 1
Bounds
Binaries
 x[0] x[1] x[2] x[3] x[4] x[5] x[6] x[7] x[8] x[9] x[10] x[11] x[12] x[13]
 x[14] x[15] x[16] x[17] x[18] x[19] x[20] x[21] x[22] x[23] x[24] x[25]
 x[26] x[27] x[28] x[29] x[30] x[31] x[32] x[33] x[34] x[35] x[36] x[37]
 x[38] x[39] x[40] x[41] x[42] x[43] x[44] x[45] x[46] x[47] x[48] x[49]
 x[50] x[51] x[52] x[53] x[54] x[55] x[56] x[57] x[58] x[59] x[60] x[61]
 x[62] x[63] x[64] x[65] x[66] x[67] x[68] x[69] x[70] x[71] x[72] x[73]
 x[74] x[75] x[76] x[77] x[78] x[79] x[80] x[81] x[82] x[83] x[84] x[85]
 x[86] x[87] x[88] x[89] x[90] x[91] x[92] x[93] x[94] x[95] x[96] x[97]
 x[98] x[99] x[100] x[101] x[102] x[103] x[104] x[105] x[106] x[107] x[108]
 x[109] u[0] u[1] u[2] u[3] u[4] u[5] u[6] u[7] u[8] u[9] u[10] u[11] u[12]
 u[13] u[14] u[15] u[16] u[17] u[18] u[19] u[20] u[21] u[22] u[23] u[24]
 u[25] u[26] u[27] u[28] u[29] u[30] u[31] u[32] u[33] u[34] u[35] u[36]
 u[37] u[38] u[39] u[40] u[41] u[42] u[43] u[44] u[45] u[46] u[47] u[48]
 u[49] u[50] u[51] u[52] u[53] u[54] u[55] u[56] u[57] u[58] u[59] u[60]
 u[61] u[62] u[63] u[64] u[65] u[66] u[67] u[68] u[69] u[70] u[71] u[72]
 u[73] u[74] u[75] u[76] u[77] u[78] u[79] u[80] u[81] u[82] u[83] u[84]
 u[85] u[86] u[87] u[88] u[89] u[90] u[91] u[92] u[93] u[94] u[95] u[96]
 u[97] u[98] u[99] u[100] u[101] u[102] u[103] u[104] u[105] u[106] u[107]
 u[108] u[109] r[0] r[1] r[2] r[3] r[4] r[5] r[6] r[7] r[8] r[9] r[10]
 r[11] r[12] r[13] r[14] r[15] r[16] r[17] r[18] r[19] r[20] r[21] r[22]
 r[23] r[24] r[25] r[26] r[27] r[28] r[29] r[30] r[31] r[32] r[33] r[34]
 r[35] r[36] r[37] r[38] r[39] r[40] r[41] r[42] r[43] r[44] r[45] r[46]
 r[47] r[48] r[49] r[50] r[51] r[52] r[53] r[54] r[55] r[56] r[57] r[58]
 r[59] r[60] r[61] r[62] r[63] r[64] r[65] r[66] r[67] r[68] r[69] r[70]
 r[71] r[72] r[73] r[74] r[75] r[76] r[77] r[78] r[79] r[80] r[81] r[82]
 r[83] r[84] r[85] r[86] r[87] r[88] r[89] r[90] r[91] r[92] r[93] r[94]
 r[95] r[96] r[97] r[98] r[99] r[100] r[101] r[102] r[103] r[104] r[105]
 r[106] r[107] r[108] r[109]
End
