instances/knapsack/discrete/knapsack_110_4.kp
78958
110
536

86 8.6 24
62 6.2 21
4 0.4 18
1 0.1 62
2 0.2 64
80 8.0 79
35 3.5 28
10 1.0 14
43 4.3 61
28 2.8 5
86 8.6 25
13 1.3 25
14 1.4 57
62 6.2 60
51 5.1 21
59 5.9 54
27 2.7 36
10 1.0 92
39 3.9 85
40 4.0 76
23 2.3 100
6 0.6 21
58 5.8 10
49 4.9 38
43 4.3 55
54 5.4 33
12 1.2 54
46 4.6 42
68 6.8 40
37 3.7 7
80 8.0 91
10 1.0 42
18 1.8 94
63 6.3 9
58 5.8 2
23 2.3 55
78 7.8 39
99 9.9 53
46 4.6 97
81 8.1 58
9 0.9 98
64 6.4 72
32 3.2 36
92 9.2 17
69 6.9 69
97 9.7 65
96 9.6 91
16 1.6 39
73 7.3 99
90 9.0 8
97 9.7 5
74 7.4 13
91 9.1 29
94 9.4 31
11 1.1 6
14 1.4 72
51 5.1 45
93 9.3 74
98 9.8 94
76 7.6 97
87 8.7 50
77 7.7 48
94 9.4 24
77 7.7 4
34 3.4 9
50 5.0 23
39 3.9 79
89 8.9 56
26 2.6 19
84 8.4 12
88 8.8 35
24 2.4 53
76 7.6 99
9 0.9 44
10 1.0 69
75 7.5 20
33 3.3 60
9 0.9 11
15 1.5 86
85 8.5 54
80 8.0 13
96 9.6 8
49 4.9 100
48 4.8 36
80 8.0 71
8 0.8 27
54 5.4 44
98 9.8 77
4 0.4 50
49 4.9 73
15 1.5 32
27 2.7 80
35 3.5 24
66 6.6 91
30 3.0 34
67 6.7 9
15 1.5 15
67 6.7 26
2 0.2 99
38 3.8 79
59 5.9 7
82 8.2 20
76 7.6 45
26 2.6 4
23 2.3 9
52 5.2 1
69 6.9 20
41 4.1 67
57 5.7 76
99 9.9 51

55210
539

[3.4635468814700796 1.9136641411266353 0.5456074432516436 2.917016523152783 1.5291169968159484 1.6392113414118736 1.194572610190097 4.409575201986596 4.696272962297121 3.6194369039295786 1.424505939409648 4.063999299149656 4.434230645033312 0.769204515577775 1.241384416336914 2.388155078147532 3.686293329640443 0.4524313482338741 4.522605193644358 3.9169397504512826 2.1593131900929188 3.2427280135291787 2.5813446101599515 1.5196544645725174 3.3587849103573704 1.1119107826395125 0.042541512100176274 1.6716218015892321 0.2804142116367182 1.4403246255253837 0.6610095558080697 2.2785115213021094 0.05053127056497591 0.08031415000676263 2.8451980091429494 0.5605272303680128 0.3330384242447714 2.2501743839404544 4.499786939796393 1.1685043458669606 3.1409447921794085 2.6630226473742384 4.10887428752739 1.265919849673946 3.01867096486561 1.67403564334247 2.6193025837866966 1.912723394332318 0.2224887940672743 1.7332433225576651 1.2539586426453737 0.15317275808165096 2.2609039723377804 0.16449787804236288 1.197663534802023 0.7835829880837449 2.8814424268710073 3.058141240983941 0.5426850227859359 1.1833320405735448 2.3734147782561474 3.7805027883886466 4.885542036444912 0.7783978808538619 0.6693411984413346 3.1129109629364735 3.11142234069807 1.0939651728158204 3.6463509111465084 2.020840492815278 4.725925095112885 2.9502684852408407 1.2845375210285435 1.8449680615167627 0.26608188919427217 1.9101201298768775 3.7170229547046327 0.07358194635495252 3.5676390606807784 1.2450641975041143 3.7109273786035795 2.4015806726578095 4.283171102971256 1.42286356424545 0.820574165153023 0.280729255032836 4.775595361279848 3.5724434915076038 4.674157279051321 1.9874849631236724 2.5609633431286456 1.2461497555554228 2.7815112100325656 1.7683264102850753 2.8399705757402325 2.1657369507749897 0.49152065092299413 2.8165913922151877 4.487516252601351 3.2919759063135694 3.6367771762421617 0.3538054469379734 1.5447908599374314 2.271397409966515 1.4663498230455774 2.275558992180983 4.725571684440468 1.837552309060792 0.9677120893579244 1.1570438875839293]

[48 88 10 51 48 98 93 100 53 46 36 39 8 40 1 57 77 68 21 50 49 44 80 59 73 52 66 40 54 23 86 36 4 77 12 61 56 93 24 27 67 18 86 2 15 51 18 2 71 84 39 72 93 28 29 96 13 95 28 30 73 95 28 27 24 96 97 31 4 46 26 98 38 59 64 29 23 71 33 63 14 58 99 82 42 86 92 48 6 63 53 41 97 44 48 97 65 45 60 100 1 88 22 64 53 62 19 75 27 1]
